Instance: Data/Instances_txt/inst_20_30_4.txt
SetUpTime: 1.000959873199463

Gurobi 10.0.1 (mac64[x86]) logging started Di  1 Aug 16:28:58 2023

Set parameter LogFile to value "Output/MILP_RELAXED_inst_20_30_4_2023-08-01_16-28-50.txt"
Set parameter TimeLimit to value 2700

Gurobi 10.0.1 (mac64[x86]) logging started Di  1 Aug 16:28:58 2023

Set parameter LogFile to value "Output/MILP_RELAXED_inst_20_30_4_2023-08-01_16-28-50.txt"
Gurobi Optimizer version 10.0.1 build v10.0.1rc0 (mac64[x86])

CPU model: Intel(R) Core(TM) i5-1038NG7 CPU @ 2.00GHz
Thread count: 4 physical cores, 8 logical processors, using up to 8 threads

Optimize a model with 41 rows, 2540 columns and 19772 nonzeros
Model fingerprint: 0x55227b64
Coefficient statistics:
  Matrix range     [1e+00, 1e+00]
  Objective range  [8e+00, 2e+03]
  Bounds range     [1e+00, 1e+00]
  RHS range        [1e+00, 1e+00]
Presolve removed 2 rows and 0 columns
Presolve time: 0.01s
Presolved: 39 rows, 2540 columns, 19269 nonzeros

Iteration    Objective       Primal Inf.    Dual Inf.      Time
       0    1.6000000e+02   2.000000e+01   0.000000e+00      0s
     128    1.7224000e+03   0.000000e+00   0.000000e+00      0s

Solved in 128 iterations and 0.01 seconds (0.02 work units)
Optimal objective  1.722400000e+03

User-callback calls 186, time in user-callback 0.00 sec

=========================

OUTPUT STATISTICS
Relaxed: true
Time since start: 1.0687310695648193
SetUpTime: 1.000959873199463
Objective value: 1722.3999999999999
Number of variables: 2540
Solving time: 0.06693005561828613
